15814
1 0 1 0 1 1 1 1 1 0 0 0 1 0 1 0 0 1 0 0 1 0 0 0 1 0 1 1 0 0 
20 0 20 2 20 5 2 24 14 17 24 8 8 20 17 14 14 17 5 0 2 0 5 17 5 8 2 24 5 24 5 5 6 27 20 20 24 24 0 14 0 14 24 8 24 14 0 20 27 8 5 14 14 5 20 20 17 27 0 14 0 5 20 27 0 0 24 0 5 24 20 6 5 17 24 8 26 20 14 24 20 7 20 17 17 17 17 4 20 5 2 24 7 0 7 5 2 2 27 20 8 7 14 0 2 5 7 0 14 8 14 14 2 0 0 27 24 24 24 24 5 8 5 20 8 0 5 24 0 12 0 27 24 5 8 14 7 24 20 0 0 8 20 14 8 27 0 0 0 5 

Total Run Time: 284050 ms.
